32	0

0	1	2
1	1	3
9	1	4
8	1	5
6	1	6
7	1	7
8	1	8
9	1	9
6	1	10
3	1	11
6	1	12
1	1	13
5	1	14
5	1	15
4	1	16
6	1	17
1	1	18
6	1	19
5	1	20
4	1	21
2	1	22
9	1	23
1	1	24
9	1	25
4	1	26
6	1	27
8	1	28
3	1	29
2	1	30
1	1	31
1	1	32
0	0
